unsat
( c0
  c1
  c10
  c100
  c1000
  c1001
  c1002
  c1003
  c1004
  c1005
  c1006
  c1007
  c1008
  c1009
  c101
  c1010
  c1011
  c1012
  c1013
  c1014
  c1015
  c1016
  c1017
  c1018
  c1019
  c102
  c1029
  c103
  c1030
  c1031
  c1032
  c1033
  c1035
  c1036
  c1037
  c1038
  c104
  c1040
  c1041
  c1045
  c1046
  c1047
  c1048
  c1049
  c105
  c1051
  c1052
  c1053
  c1054
  c1056
  c1057
  c1058
  c1059
  c106
  c1060
  c1062
  c1063
  c1065
  c1066
  c1067
  c1068
  c1069
  c107
  c1070
  c1071
  c1072
  c1073
  c1074
  c1075
  c1076
  c1077
  c1078
  c1079
  c108
  c1080
  c1081
  c1082
  c1083
  c1084
  c1085
  c1086
  c1087
  c1088
  c1089
  c109
  c1090
  c1091
  c1092
  c1093
  c1094
  c1095
  c1096
  c1097
  c1098
  c1099
  c11
  c110
  c1100
  c1101
  c1102
  c1103
  c1104
  c1105
  c1106
  c1107
  c1108
  c1109
  c111
  c1110
  c1111
  c1112
  c1113
  c1114
  c1115
  c112
  c1125
  c1126
  c1127
  c1128
  c1129
  c113
  c1131
  c1132
  c1133
  c1134
  c1136
  c1137
  c114
  c1141
  c1142
  c1143
  c1144
  c1145
  c1147
  c1148
  c1149
  c115
  c1150
  c1152
  c1153
  c1154
  c1155
  c1156
  c1158
  c1159
  c116
  c1161
  c1162
  c1163
  c1164
  c1165
  c1166
  c1167
  c1168
  c1169
  c117
  c1170
  c1171
  c1172
  c1173
  c1174
  c1175
  c1176
  c1177
  c1178
  c1179
  c118
  c1180
  c1181
  c1182
  c1183
  c1184
  c1185
  c1186
  c1187
  c1188
  c1189
  c119
  c1190
  c1191
  c1192
  c1193
  c1194
  c1195
  c1196
  c1197
  c1198
  c1199
  c12
  c120
  c1200
  c1201
  c1202
  c1203
  c1204
  c1205
  c1206
  c1207
  c1208
  c1209
  c121
  c1210
  c1211
  c122
  c1221
  c1222
  c1223
  c1224
  c1225
  c1227
  c1228
  c1229
  c123
  c1230
  c1232
  c1233
  c1237
  c1238
  c1239
  c124
  c1240
  c1241
  c1243
  c1244
  c1245
  c1246
  c1248
  c1249
  c125
  c1250
  c1251
  c1252
  c1254
  c1255
  c1257
  c1258
  c1259
  c126
  c1260
  c1261
  c1262
  c1263
  c1264
  c1265
  c1266
  c1267
  c1268
  c1269
  c127
  c1270
  c1271
  c1272
  c1273
  c1274
  c1275
  c1276
  c1277
  c1278
  c1279
  c128
  c1280
  c1281
  c1282
  c1283
  c1284
  c1285
  c1286
  c1287
  c1288
  c1289
  c129
  c1290
  c1291
  c1292
  c1293
  c1294
  c1295
  c1296
  c1297
  c1298
  c1299
  c13
  c130
  c1300
  c1301
  c1302
  c1303
  c1304
  c1305
  c1306
  c1307
  c131
  c1317
  c1318
  c1319
  c132
  c1320
  c1321
  c1323
  c1324
  c1325
  c1326
  c1328
  c1329
  c133
  c1333
  c1334
  c1335
  c1336
  c1337
  c1339
  c134
  c1340
  c1341
  c1342
  c1344
  c1345
  c1346
  c1347
  c1348
  c135
  c1350
  c1351
  c1353
  c1354
  c1355
  c1356
  c1357
  c1358
  c1359
  c136
  c1360
  c1361
  c1362
  c1363
  c1364
  c1365
  c1366
  c1367
  c1368
  c1369
  c137
  c1370
  c1371
  c1372
  c1373
  c1374
  c1375
  c1376
  c1377
  c1378
  c1379
  c138
  c1380
  c1381
  c1382
  c1383
  c1384
  c1385
  c1386
  c1387
  c1388
  c1389
  c139
  c1390
  c1391
  c1392
  c1393
  c1394
  c1395
  c1396
  c1397
  c1398
  c1399
  c14
  c140
  c1400
  c1401
  c1402
  c1403
  c141
  c1413
  c142
  c143
  c144
  c145
  c146
  c147
  c148
  c149
  c15
  c150
  c151
  c152
  c153
  c154
  c1542
  c155
  c1559
  c156
  c1569
  c157
  c1570
  c1571
  c1572
  c1573
  c1574
  c1575
  c1576
  c1577
  c1578
  c1579
  c158
  c1580
  c1581
  c1582
  c1583
  c1584
  c1585
  c1586
  c1587
  c1588
  c1589
  c159
  c1590
  c1591
  c1592
  c1593
  c1594
  c1595
  c1596
  c1597
  c1598
  c1599
  c16
  c160
  c1600
  c1601
  c1602
  c1603
  c1604
  c1605
  c1606
  c1607
  c1608
  c1609
  c161
  c1610
  c1611
  c1612
  c1613
  c1614
  c1615
  c1616
  c1617
  c1618
  c1619
  c162
  c1620
  c1621
  c1622
  c1623
  c1624
  c163
  c164
  c165
  c166
  c168
  c169
  c1697
  c1698
  c1699
  c17
  c170
  c1700
  c1701
  c1702
  c1703
  c1704
  c1705
  c1706
  c1707
  c1708
  c1709
  c171
  c1710
  c1711
  c1712
  c1713
  c1714
  c1715
  c1716
  c172
  c1725
  c1726
  c1727
  c1728
  c1729
  c173
  c1730
  c1731
  c1732
  c1734
  c1735
  c1736
  c1737
  c1738
  c1739
  c174
  c1740
  c1741
  c1742
  c1743
  c1744
  c1745
  c1746
  c1747
  c1748
  c1749
  c175
  c1750
  c1751
  c1752
  c1755
  c1756
  c1759
  c176
  c1760
  c1763
  c1764
  c1767
  c1768
  c177
  c1771
  c1772
  c1775
  c1776
  c1779
  c178
  c1780
  c1783
  c1784
  c1786
  c1787
  c1789
  c179
  c1790
  c1792
  c1793
  c1795
  c1796
  c1798
  c1799
  c18
  c180
  c1801
  c1802
  c1804
  c1805
  c1807
  c1808
  c181
  c1813
  c1814
  c1819
  c182
  c1820
  c1825
  c1826
  c183
  c1831
  c1832
  c1837
  c1838
  c184
  c1843
  c1844
  c1849
  c185
  c1850
  c1855
  c1856
  c186
  c1861
  c1862
  c1867
  c1868
  c187
  c1873
  c1874
  c1879
  c188
  c1880
  c1885
  c1886
  c189
  c1891
  c1892
  c1897
  c1898
  c19
  c190
  c1903
  c1904
  c1905
  c1909
  c191
  c1910
  c1911
  c1915
  c1916
  c1917
  c192
  c1921
  c1922
  c1923
  c1927
  c1928
  c1929
  c193
  c1933
  c1934
  c1935
  c1939
  c194
  c1940
  c1941
  c1945
  c1946
  c1947
  c195
  c1951
  c1952
  c1955
  c1956
  c1959
  c196
  c1960
  c1963
  c1964
  c1967
  c1968
  c197
  c1971
  c1972
  c1975
  c1976
  c1979
  c198
  c1980
  c1983
  c1984
  c1985
  c1986
  c1987
  c1988
  c1989
  c199
  c1990
  c1992
  c1993
  c1996
  c1997
  c2
  c20
  c200
  c2000
  c2001
  c2004
  c2005
  c2010
  c2013
  c2016
  c2019
  c202
  c2020
  c2021
  c2022
  c2023
  c2024
  c2025
  c2026
  c2027
  c2028
  c2029
  c203
  c2030
  c2031
  c2032
  c2033
  c2034
  c2035
  c204
  c205
  c206
  c207
  c208
  c209
  c21
  c210
  c211
  c212
  c213
  c214
  c215
  c216
  c217
  c218
  c219
  c22
  c220
  c221
  c222
  c223
  c224
  c225
  c226
  c227
  c228
  c229
  c23
  c230
  c231
  c232
  c233
  c234
  c235
  c236
  c237
  c238
  c239
  c24
  c240
  c241
  c25
  c26
  c27
  c28
  c29
  c30
  c31
  c32
  c33
  c34
  c35
  c36
  c37
  c371
  c378
  c38
  c380
  c382
  c384
  c385
  c386
  c387
  c388
  c39
  c390
  c391
  c392
  c393
  c394
  c395
  c396
  c397
  c398
  c399
  c4
  c40
  c400
  c401
  c402
  c403
  c404
  c405
  c406
  c407
  c408
  c409
  c41
  c410
  c42
  c427
  c428
  c429
  c43
  c430
  c431
  c432
  c433
  c434
  c435
  c436
  c437
  c438
  c439
  c44
  c440
  c441
  c442
  c443
  c444
  c445
  c446
  c447
  c448
  c449
  c45
  c450
  c46
  c47
  c48
  c49
  c499
  c5
  c50
  c500
  c501
  c502
  c503
  c504
  c505
  c506
  c507
  c508
  c509
  c51
  c510
  c511
  c512
  c513
  c514
  c52
  c53
  c54
  c55
  c56
  c563
  c564
  c565
  c566
  c567
  c568
  c569
  c57
  c570
  c572
  c573
  c579
  c58
  c580
  c581
  c582
  c583
  c584
  c585
  c586
  c587
  c588
  c59
  c595
  c596
  c597
  c598
  c599
  c6
  c60
  c600
  c601
  c602
  c603
  c604
  c605
  c606
  c607
  c608
  c609
  c61
  c610
  c611
  c612
  c613
  c614
  c615
  c616
  c617
  c618
  c619
  c62
  c620
  c621
  c622
  c623
  c624
  c625
  c626
  c627
  c628
  c63
  c630
  c635
  c636
  c637
  c638
  c639
  c64
  c640
  c641
  c642
  c643
  c644
  c645
  c646
  c647
  c648
  c649
  c65
  c651
  c652
  c653
  c654
  c656
  c657
  c66
  c661
  c662
  c663
  c664
  c665
  c667
  c668
  c669
  c67
  c670
  c672
  c673
  c674
  c675
  c676
  c678
  c679
  c68
  c681
  c682
  c683
  c684
  c685
  c686
  c687
  c688
  c689
  c69
  c690
  c691
  c692
  c693
  c694
  c695
  c696
  c697
  c698
  c699
  c7
  c70
  c700
  c701
  c702
  c703
  c704
  c705
  c706
  c707
  c708
  c709
  c71
  c710
  c711
  c712
  c713
  c714
  c715
  c716
  c717
  c718
  c719
  c72
  c720
  c721
  c722
  c723
  c724
  c725
  c726
  c727
  c728
  c729
  c73
  c730
  c731
  c74
  c741
  c742
  c743
  c744
  c745
  c747
  c748
  c749
  c75
  c750
  c752
  c753
  c757
  c758
  c759
  c76
  c760
  c761
  c763
  c764
  c765
  c766
  c768
  c769
  c77
  c770
  c771
  c772
  c774
  c775
  c777
  c778
  c779
  c78
  c780
  c781
  c782
  c783
  c784
  c785
  c786
  c787
  c788
  c789
  c79
  c790
  c791
  c792
  c793
  c794
  c795
  c796
  c797
  c798
  c799
  c8
  c80
  c800
  c801
  c802
  c803
  c804
  c805
  c806
  c807
  c808
  c809
  c81
  c810
  c811
  c812
  c813
  c814
  c815
  c816
  c817
  c818
  c819
  c82
  c820
  c821
  c822
  c823
  c824
  c825
  c826
  c827
  c83
  c837
  c838
  c839
  c84
  c840
  c841
  c843
  c844
  c845
  c846
  c848
  c849
  c85
  c853
  c854
  c855
  c856
  c857
  c859
  c86
  c860
  c861
  c862
  c864
  c865
  c866
  c867
  c868
  c87
  c870
  c871
  c873
  c874
  c875
  c876
  c877
  c878
  c879
  c88
  c880
  c881
  c882
  c883
  c884
  c885
  c886
  c887
  c888
  c889
  c89
  c890
  c891
  c892
  c893
  c894
  c895
  c896
  c897
  c898
  c899
  c9
  c90
  c900
  c901
  c902
  c903
  c904
  c905
  c906
  c907
  c908
  c909
  c91
  c910
  c911
  c912
  c913
  c914
  c915
  c916
  c917
  c918
  c919
  c92
  c920
  c921
  c922
  c923
  c93
  c933
  c934
  c935
  c936
  c937
  c939
  c94
  c940
  c941
  c942
  c944
  c945
  c949
  c95
  c950
  c951
  c952
  c953
  c955
  c956
  c957
  c958
  c96
  c960
  c961
  c962
  c963
  c964
  c966
  c967
  c969
  c97
  c970
  c971
  c972
  c973
  c974
  c975
  c976
  c977
  c978
  c979
  c98
  c980
  c981
  c982
  c983
  c984
  c985
  c986
  c987
  c988
  c989
  c99
  c990
  c991
  c992
  c993
  c994
  c995
  c996
  c997
  c998
  c999 )
